rust/resources/mosek_bounds.lp
\ Created by MOSEK version 8.0.0.94
minimize
system_cost:  + 2e-01 Gen_001d01h01 + 2e-01 Gen_001d01h02 + 2e-01 Gen_001d01h03 + 2e-01 Gen_001d01h04 + 2e-01 Gen_001d01h05 + 2e-01 Gen_001d01h06 + 2e-01 Gen_001d01h07 + 2e-01 Gen_001d01h08 + 2e-01 Gen_001d01h09 + 2e-01 Gen_001d01h10
 + 2e-01 Gen_001d01h11
Subject To
 dummy_constraint: Gen_001d01h01 + Gen_001d01h02 + 59.983048643 SO_GB.XYZ's.Dan.(1) - 0.200000000 STU_7_AL.rsuT.Wat.Job.(1) <= 1000
Bounds
 -999999999.899999976 <= EF_0_E_Hub_Albania_Demand_Albania
 -999999999.899999976 <= EF_1_E_Hub_Albania_Demand_Albania
End
